
n_res = 6;
rcap = [28, 30, 32, 32, 1296, 1320];
rtype = [1, 1, 1, 1, 2, 2];
n_tasks = 100;
modes =  [{1, 2, 3, 4, 5, 6}, {7, 8, 9, 10, 11, 12}, {13, 14, 15, 16, 17, 18}, {19, 20, 21, 22, 23, 24}, {25, 26, 27, 28, 29, 30}, {31, 32, 33, 34, 35, 36}, {37, 38, 39, 40, 41, 42}, {43, 44, 45, 46, 47, 48}, {49, 50, 51, 52, 53, 54}, {55, 56, 57, 58, 59, 60}, {61, 62, 63, 64, 65, 66}, {67, 68, 69, 70, 71, 72}, {73, 74, 75, 76, 77, 78}, {79, 80, 81, 82, 83, 84}, {85, 86, 87, 88, 89, 90}, {91, 92, 93, 94, 95, 96}, {97, 98, 99, 100, 101, 102}, {103, 104, 105, 106, 107, 108}, {109, 110, 111, 112, 113, 114}, {115, 116, 117, 118, 119, 120}, {121, 122, 123, 124, 125, 126}, {127, 128, 129, 130, 131, 132}, {133, 134, 135, 136, 137, 138}, {139, 140, 141, 142, 143, 144}, {145, 146, 147, 148, 149, 150}, {151, 152, 153, 154, 155, 156}, {157, 158, 159, 160, 161, 162}, {163, 164, 165, 166, 167, 168}, {169, 170, 171, 172, 173, 174}, {175, 176, 177, 178, 179, 180}, {181, 182, 183, 184, 185, 186}, {187, 188, 189, 190, 191, 192}, {193, 194, 195, 196, 197, 198}, {199, 200, 201, 202, 203, 204}, {205, 206, 207, 208, 209, 210}, {211, 212, 213, 214, 215, 216}, {217, 218, 219, 220, 221, 222}, {223, 224, 225, 226, 227, 228}, {229, 230, 231, 232, 233, 234}, {235, 236, 237, 238, 239, 240}, {241, 242, 243, 244, 245, 246}, {247, 248, 249, 250, 251, 252}, {253, 254, 255, 256, 257, 258}, {259, 260, 261, 262, 263, 264}, {265, 266, 267, 268, 269, 270}, {271, 272, 273, 274, 275, 276}, {277, 278, 279, 280, 281, 282}, {283, 284, 285, 286, 287, 288}, {289, 290, 291, 292, 293, 294}, {295, 296, 297, 298, 299, 300}, {301, 302, 303, 304, 305, 306}, {307, 308, 309, 310, 311, 312}, {313, 314, 315, 316, 317, 318}, {319, 320, 321, 322, 323, 324}, {325, 326, 327, 328, 329, 330}, {331, 332, 333, 334, 335, 336}, {337, 338, 339, 340, 341, 342}, {343, 344, 345, 346, 347, 348}, {349, 350, 351, 352, 353, 354}, {355, 356, 357, 358, 359, 360}, {361, 362, 363, 364, 365, 366}, {367, 368, 369, 370, 371, 372}, {373, 374, 375, 376, 377, 378}, {379, 380, 381, 382, 383, 384}, {385, 386, 387, 388, 389, 390}, {391, 392, 393, 394, 395, 396}, {397, 398, 399, 400, 401, 402}, {403, 404, 405, 406, 407, 408}, {409, 410, 411, 412, 413, 414}, {415, 416, 417, 418, 419, 420}, {421, 422, 423, 424, 425, 426}, {427, 428, 429, 430, 431, 432}, {433, 434, 435, 436, 437, 438}, {439, 440, 441, 442, 443, 444}, {445, 446, 447, 448, 449, 450}, {451, 452, 453, 454, 455, 456}, {457, 458, 459, 460, 461, 462}, {463, 464, 465, 466, 467, 468}, {469, 470, 471, 472, 473, 474}, {475, 476, 477, 478, 479, 480}, {481, 482, 483, 484, 485, 486}, {487, 488, 489, 490, 491, 492}, {493, 494, 495, 496, 497, 498}, {499, 500, 501, 502, 503, 504}, {505, 506, 507, 508, 509, 510}, {511, 512, 513, 514, 515, 516}, {517, 518, 519, 520, 521, 522}, {523, 524, 525, 526, 527, 528}, {529, 530, 531, 532, 533, 534}, {535, 536, 537, 538, 539, 540}, {541, 542, 543, 544, 545, 546}, {547, 548, 549, 550, 551, 552}, {553, 554, 555, 556, 557, 558}, {559, 560, 561, 562, 563, 564}, {565, 566, 567, 568, 569, 570}, {571, 572, 573, 574, 575, 576}, {577, 578, 579, 580, 581, 582}, {583, 584, 585, 586, 587, 588}, {589, 590, 591, 592, 593, 594}, {595, 596, 597, 598, 599, 600}];
succ =  [{99, 98, 96, 75, 73, 70, 66, 65, 62, 59, 58, 56, 55, 54, 48, 46, 40, 39, 36, 31}, {100, 98, 96, 95, 76, 73, 72, 70, 64, 58, 56, 50, 48, 41, 39, 37, 29}, {96, 75, 74, 72, 70, 63, 62, 61, 60, 59, 58, 56, 54, 53, 40, 31, 25}, {98, 96, 70, 60, 58, 57, 56, 54, 52, 50, 47, 34, 31, 25}, {100, 99, 96, 76, 74, 72, 61, 55, 54, 53, 39, 33, 31, 28}, {98, 75, 73, 72, 64, 63, 59, 55, 54, 53, 44, 33, 31}, {98, 96, 93, 91, 89, 86, 75, 74, 73, 72, 65, 64, 55, 33, 31}, {98, 96, 94, 91, 85, 74, 71, 70, 69, 63, 60, 56, 55, 54, 49, 37, 36}, {100, 98, 94, 93, 89, 75, 74, 72, 71, 70, 68, 64, 62, 61, 56, 54, 51, 48, 46}, {100, 98, 96, 92, 87, 72, 69, 68, 64, 63, 61, 57, 51, 49, 48, 37}, {100, 99, 97, 95, 94, 92, 90, 89, 87, 75, 74, 73, 70, 69, 68, 67, 62, 61, 57, 55, 54, 48}, {99, 93, 90, 89, 73, 63, 62, 57, 56, 55, 53, 31}, {96, 94, 87, 76, 70, 63, 62, 59, 56, 55, 52, 50, 37}, {94, 93, 92, 90, 89, 86, 75, 73, 71, 69, 68, 65, 58, 57, 56, 55, 54, 51, 48}, {99, 97, 94, 84, 83, 74, 72, 71, 70, 68, 67, 63, 62, 61, 60, 59, 57}, {99, 96, 92, 90, 89, 84, 76, 71, 70, 69, 68, 67, 66, 63, 62, 61, 54, 48}, {98, 96, 95, 88, 74, 73, 72, 71, 70, 68, 65, 56, 48, 37}, {99, 98, 94, 92, 88, 87, 85, 75, 72, 70, 64, 61, 57, 55, 54, 46}, {99, 98, 96, 92, 90, 88, 86, 85, 76, 73, 68, 67, 65, 64, 59, 44}, {100, 96, 94, 93, 92, 90, 87, 84, 76, 72, 70, 69, 67, 63, 62, 61, 56, 54}, {98, 96, 93, 92, 77, 76, 73, 68, 62, 61, 57, 55, 39}, {97, 94, 93, 90, 86, 74, 70, 67, 62, 57, 56, 55, 47}, {99, 98, 97, 96, 95, 92, 91, 89, 88, 86, 85, 74, 70, 68, 67, 64, 61, 54}, {98, 97, 96, 93, 91, 84, 74, 70, 68, 62, 61, 41}, {97, 94, 93, 92, 90, 88, 86, 85, 80, 79, 73, 71, 69, 68, 67, 55, 51}, {95, 94, 73, 68, 67, 59, 45, 44}, {97, 96, 91, 90, 89, 88, 80, 71, 64, 63, 56, 51}, {97, 94, 92, 91, 90, 89, 88, 87, 86, 85, 81, 80, 78, 70, 68, 67, 56}, {99, 97, 93, 89, 86, 83, 68, 66, 62, 61, 54, 53}, {98, 89, 88, 86, 85, 84, 83, 82, 80, 74, 73, 71, 67}, {97, 94, 92, 85, 80, 71, 68, 67, 51}, {99, 96, 94, 91, 88, 86, 83, 80, 79, 78, 77, 71, 68}, {92, 90, 84, 83, 82, 78, 70, 69, 62, 58}, {100, 94, 88, 55, 45}, {94, 93, 89, 86, 85, 84, 82, 81, 80, 77, 73, 61}, {92, 90, 89, 87, 86, 77, 76, 72, 68, 61}, {90, 89, 86, 84, 83, 81, 80, 79, 78, 75, 67}, {95, 93, 91, 90, 88, 87, 85, 83, 80, 61}, {90, 89, 85, 84, 82, 80, 78, 69, 63}, {91, 89, 88, 87, 82, 81, 79, 67, 64}, {88, 85, 71, 67, 63, 54}, {93, 91, 87, 83, 80, 78, 77, 70, 69}, {100, 95, 91, 90, 87, 85, 81, 80, 79, 77}, {91, 87, 84, 83, 78, 77, 74}, {89, 86, 83, 80, 79, 77, 72}, {90, 86, 84, 80, 69, 67}, {92, 87, 85, 80, 77, 64}, {91, 85, 83, 81, 80, 79, 77}, {93, 90, 88, 83, 81, 78, 77}, {92, 89, 82, 78, 77, 69}, {95, 84, 83, 81, 78}, {100, 89, 85, 84, 78}, {88, 85, 67}, {82, 80, 77}, {84, 81, 78}, {82, 79, 77}, {91, 82, 80}, {85, 81, 77}, {93, 89, 80}, {90, 87, 78}, {79, 78}, {88, 85}, {86, 79}, {84, 83}, {83, 79}, {80, 78}, {77}, {82}, {81}, {79}, {87}, {78}, {78}, {81}, {77}, {79}, {}, {}, {}, {}, {}, {}, {}, {}, {}, {}, {}, {}, {}, {}, {}, {}, {}, {}, {}, {}, {}, {}, {}, {}];
n_opt = 600;
dur = [4, 10, 12, 14, 23, 27, 4, 17, 21, 26, 27, 28, 4, 6, 7, 8, 24, 30, 4, 6, 9, 14, 16, 25, 4, 13, 16, 18, 26, 28, 2, 3, 8, 17, 18, 28, 2, 3, 4, 8, 10, 26, 3, 20, 21, 25, 26, 29, 2, 5, 11, 13, 14, 20, 1, 2, 10, 15, 21, 30, 5, 6, 10, 22, 23, 29, 2, 7, 9, 10, 19, 23, 11, 12, 13, 27, 28, 30, 8, 9, 20, 23, 24, 28, 3, 6, 9, 12, 14, 16, 5, 8, 15, 16, 17, 22, 3, 14, 18, 21, 27, 29, 10, 11, 19, 20, 21, 22, 1, 5, 16, 23, 24, 30, 2, 9, 17, 18, 20, 22, 2, 12, 14, 21, 23, 24, 1, 3, 23, 25, 26, 27, 11, 14, 16, 20, 21, 27, 2, 11, 14, 15, 22, 30, 4, 6, 10, 11, 27, 30, 5, 7, 11, 17, 27, 29, 8, 14, 15, 20, 22, 23, 11, 15, 23, 24, 25, 29, 7, 10, 11, 12, 13, 22, 5, 12, 16, 20, 21, 25, 4, 11, 19, 22, 23, 27, 9, 10, 12, 14, 15, 16, 4, 7, 19, 20, 27, 28, 4, 5, 6, 7, 8, 24, 1, 9, 10, 14, 18, 21, 18, 19, 20, 21, 26, 29, 3, 8, 18, 25, 29, 30, 13, 19, 20, 24, 25, 28, 3, 5, 16, 21, 24, 28, 5, 13, 22, 26, 27, 30, 9, 10, 13, 16, 17, 20, 2, 3, 7, 13, 21, 27, 5, 9, 13, 23, 24, 30, 3, 5, 24, 25, 27, 30, 9, 12, 19, 20, 21, 27, 2, 3, 4, 13, 16, 22, 4, 10, 17, 20, 25, 30, 3, 15, 19, 23, 25, 30, 1, 12, 18, 27, 29, 30, 5, 8, 13, 14, 22, 29, 9, 19, 20, 21, 28, 29, 2, 4, 5, 6, 20, 24, 5, 6, 9, 10, 12, 22, 5, 6, 7, 26, 27, 28, 2, 10, 12, 15, 17, 28, 5, 14, 17, 22, 24, 25, 1, 3, 4, 6, 17, 27, 10, 13, 14, 15, 26, 28, 4, 7, 9, 19, 21, 22, 6, 7, 8, 19, 22, 30, 5, 16, 18, 19, 20, 26, 6, 12, 18, 20, 21, 22, 1, 2, 6, 9, 22, 29, 5, 6, 11, 12, 18, 22, 5, 8, 11, 18, 27, 28, 12, 13, 14, 18, 19, 22, 3, 11, 12, 14, 22, 30, 7, 10, 12, 24, 27, 29, 11, 12, 15, 16, 20, 26, 1, 11, 24, 26, 27, 29, 9, 10, 12, 26, 27, 28, 1, 2, 3, 16, 21, 27, 1, 5, 10, 13, 29, 30, 13, 17, 18, 19, 21, 23, 3, 14, 19, 24, 26, 27, 1, 4, 5, 14, 18, 27, 6, 13, 16, 18, 26, 29, 11, 14, 16, 19, 28, 29, 8, 9, 16, 17, 19, 20, 4, 7, 8, 15, 23, 24, 2, 9, 10, 21, 22, 23, 4, 5, 11, 14, 21, 23, 8, 19, 20, 24, 26, 29, 1, 3, 10, 12, 14, 21, 3, 4, 12, 16, 26, 27, 2, 8, 9, 16, 19, 23, 3, 5, 15, 22, 23, 26, 8, 15, 22, 23, 24, 30, 1, 5, 7, 11, 13, 29, 6, 11, 22, 23, 25, 26, 2, 4, 5, 6, 7, 14, 12, 19, 20, 23, 25, 27, 2, 14, 18, 19, 26, 30, 1, 3, 6, 16, 28, 30, 8, 11, 15, 17, 24, 25, 7, 15, 16, 18, 24, 26, 6, 11, 14, 15, 19, 26, 6, 18, 26, 27, 28, 30, 4, 5, 9, 25, 26, 27, 4, 17, 18, 24, 26, 27];
rreq = [|5, 4, 4, 4, 4, 4, 3, 3, 3, 3, 3, 3, 2, 1, 1, 1, 1, 1, 1, 1, 1, 1, 1, 1, 2, 2, 2, 2, 1, 1, 2, 1, 1, 1, 1, 1, 2, 1, 1, 1, 1, 1, 4, 4, 4, 4, 4, 4, 5, 4, 4, 4, 4, 4, 3, 3, 3, 2, 2, 2, 3, 3, 2, 2, 1, 1, 3, 3, 3, 3, 3, 3, 5, 3, 3, 3, 2, 1, 4, 4, 4, 4, 4, 4, 3, 3, 3, 3, 3, 3, 2, 2, 2, 1, 1, 1, 2, 2, 2, 2, 1, 1, 5, 4, 4, 4, 3, 3, 3, 3, 3, 2, 2, 2, 5, 3, 3, 3, 2, 1, 4, 4, 4, 3, 3, 2, 4, 4, 4, 4, 4, 4, 5, 5, 5, 5, 5, 5, 5, 4, 4, 4, 3, 3, 1, 1, 1, 1, 1, 1, 4, 3, 3, 3, 3, 3, 1, 1, 1, 1, 1, 1, 1, 1, 1, 1, 1, 1, 4, 3, 3, 3, 2, 2, 1, 1, 1, 1, 1, 1, 2, 2, 2, 2, 2, 2, 3, 3, 3, 2, 2, 2, 3, 3, 3, 2, 2, 2, 3, 2, 2, 2, 1, 1, 1, 1, 1, 1, 1, 1, 5, 4, 4, 4, 4, 4, 2, 2, 2, 2, 2, 2, 3, 3, 3, 2, 2, 2, 4, 4, 4, 4, 4, 4, 5, 4, 4, 3, 3, 3, 5, 4, 4, 4, 4, 4, 4, 3, 3, 2, 1, 1, 1, 1, 1, 1, 1, 1, 2, 2, 2, 2, 2, 2, 2, 1, 1, 1, 1, 1, 1, 1, 1, 1, 1, 1, 5, 4, 4, 3, 3, 2, 3, 2, 2, 2, 1, 1, 5, 4, 3, 3, 2, 2, 3, 2, 2, 2, 2, 2, 4, 3, 3, 3, 3, 3, 1, 1, 1, 1, 1, 1, 3, 2, 2, 1, 1, 1, 4, 3, 3, 2, 2, 2, 1, 1, 1, 1, 1, 1, 5, 5, 5, 5, 5, 5, 4, 3, 3, 2, 2, 2, 5, 5, 5, 5, 5, 5, 3, 3, 2, 2, 1, 1, 2, 2, 2, 2, 1, 1, 2, 2, 2, 2, 2, 2, 4, 4, 3, 3, 3, 2, 4, 3, 3, 3, 3, 3, 5, 3, 3, 2, 1, 1, 4, 3, 3, 2, 1, 1, 3, 2, 2, 2, 2, 2, 3, 2, 2, 2, 1, 1, 5, 3, 3, 2, 2, 1, 5, 4, 4, 4, 4, 4, 4, 4, 3, 3, 2, 1, 2, 2, 2, 2, 2, 2, 4, 3, 2, 2, 1, 1, 4, 3, 2, 2, 1, 1, 1, 1, 1, 1, 1, 1, 5, 4, 3, 3, 3, 2, 1, 1, 1, 1, 1, 1, 2, 2, 2, 2, 1, 1, 2, 1, 1, 1, 1, 1, 2, 2, 2, 2, 2, 2, 4, 4, 4, 4, 4, 4, 2, 2, 2, 1, 1, 1, 4, 4, 4, 4, 4, 4, 3, 3, 3, 3, 3, 3, 4, 4, 3, 3, 3, 2, 4, 3, 3, 2, 2, 2, 1, 1, 1, 1, 1, 1, 4, 4, 4, 4, 4, 4, 3, 2, 2, 2, 1, 1, 5, 4, 3, 3, 1, 1, 3, 3, 3, 3, 3, 3, 2, 2, 2, 2, 2, 2, 5, 4, 4, 3, 2, 2, 4, 4, 3, 3, 2, 1, 3, 2, 2, 1, 1, 1, 5, 5, 5, 5, 5, 5, 5, 5, 5, 5, 5, 5, 2, 2, 2, 2, 2, 2, 3, 3, 3, 3, 3, 3, 2, 2, 2, 2, 2, 2, 2, 2, 2, 2, 1, 1
 |5, 3, 3, 3, 2, 1, 4, 3, 3, 3, 3, 3, 2, 2, 2, 2, 1, 1, 3, 3, 3, 3, 3, 3, 4, 3, 3, 2, 2, 2, 2, 2, 2, 2, 2, 2, 4, 3, 3, 3, 2, 2, 3, 2, 2, 2, 2, 2, 3, 3, 3, 2, 2, 2, 4, 4, 4, 3, 3, 3, 4, 4, 4, 4, 4, 4, 4, 3, 3, 3, 2, 2, 2, 1, 1, 1, 1, 1, 4, 3, 3, 3, 3, 3, 5, 4, 4, 4, 3, 3, 2, 2, 2, 2, 2, 2, 3, 3, 3, 2, 2, 2, 3, 3, 3, 3, 3, 3, 4, 3, 3, 2, 2, 2, 5, 4, 4, 4, 3, 3, 1, 1, 1, 1, 1, 1, 4, 4, 3, 2, 1, 1, 5, 5, 5, 5, 5, 5, 3, 2, 2, 2, 1, 1, 3, 3, 3, 2, 2, 2, 3, 3, 3, 3, 2, 2, 2, 2, 2, 2, 2, 2, 5, 4, 4, 4, 3, 3, 5, 4, 4, 4, 4, 4, 4, 3, 2, 2, 1, 1, 4, 4, 4, 3, 3, 3, 4, 3, 3, 3, 2, 2, 1, 1, 1, 1, 1, 1, 5, 4, 3, 3, 3, 2, 1, 1, 1, 1, 1, 1, 5, 4, 4, 3, 3, 3, 3, 2, 2, 2, 2, 2, 3, 3, 3, 2, 1, 1, 4, 3, 3, 3, 3, 3, 4, 4, 4, 4, 4, 4, 5, 4, 4, 4, 4, 4, 2, 2, 2, 2, 2, 2, 4, 3, 3, 3, 3, 3, 3, 3, 3, 3, 2, 2, 4, 4, 3, 3, 3, 2, 2, 2, 2, 2, 2, 2, 5, 4, 4, 3, 2, 2, 2, 2, 2, 2, 1, 1, 1, 1, 1, 1, 1, 1, 3, 3, 3, 3, 3, 3, 3, 2, 2, 2, 1, 1, 3, 3, 3, 3, 3, 3, 4, 4, 3, 3, 3, 2, 2, 2, 2, 1, 1, 1, 4, 3, 2, 2, 2, 1, 5, 4, 3, 3, 1, 1, 3, 3, 3, 3, 3, 3, 4, 4, 4, 4, 4, 4, 4, 3, 3, 3, 3, 3, 4, 3, 2, 2, 1, 1, 4, 4, 4, 3, 3, 3, 3, 3, 3, 3, 2, 2, 4, 3, 3, 3, 2, 2, 1, 1, 1, 1, 1, 1, 3, 3, 3, 2, 2, 1, 5, 4, 3, 2, 2, 1, 1, 1, 1, 1, 1, 1, 5, 4, 4, 4, 4, 4, 2, 1, 1, 1, 1, 1, 2, 2, 2, 2, 2, 2, 4, 3, 2, 2, 2, 1, 4, 4, 4, 4, 3, 3, 5, 3, 3, 2, 1, 1, 5, 5, 5, 5, 5, 5, 5, 5, 5, 5, 5, 5, 2, 2, 2, 2, 2, 2, 5, 4, 3, 2, 1, 1, 5, 4, 3, 3, 2, 2, 3, 3, 3, 3, 3, 3, 3, 3, 3, 2, 2, 2, 3, 2, 2, 1, 1, 1, 3, 3, 3, 3, 3, 3, 2, 1, 1, 1, 1, 1, 4, 4, 4, 3, 2, 2, 4, 4, 3, 2, 2, 1, 1, 1, 1, 1, 1, 1, 4, 4, 4, 4, 4, 4, 4, 4, 4, 3, 3, 3, 5, 4, 3, 3, 1, 1, 4, 4, 4, 4, 4, 4, 3, 3, 3, 3, 3, 3, 4, 4, 3, 3, 1, 1, 4, 4, 4, 4, 4, 4, 5, 4, 4, 4, 4, 4, 1, 1, 1, 1, 1, 1, 2, 2, 2, 2, 2, 2, 5, 4, 4, 3, 3, 3, 3, 3, 3, 3, 3, 3, 5, 4, 3, 3, 2, 1, 2, 1, 1, 1, 1, 1
 |5, 4, 3, 3, 2, 2, 2, 2, 2, 1, 1, 1, 3, 2, 2, 1, 1, 1, 1, 1, 1, 1, 1, 1, 2, 2, 2, 2, 2, 2, 5, 5, 5, 5, 5, 5, 5, 3, 3, 3, 2, 1, 4, 3, 3, 3, 3, 3, 3, 3, 3, 3, 3, 3, 3, 3, 3, 3, 3, 3, 4, 3, 3, 3, 3, 3, 1, 1, 1, 1, 1, 1, 3, 3, 3, 3, 3, 3, 5, 5, 5, 5, 5, 5, 4, 4, 4, 4, 4, 4, 4, 4, 4, 3, 2, 2, 3, 3, 3, 3, 3, 3, 3, 3, 2, 2, 1, 1, 5, 4, 4, 4, 4, 4, 4, 4, 4, 4, 4, 4, 4, 3, 3, 2, 2, 1, 3, 3, 3, 2, 2, 2, 5, 4, 4, 3, 3, 2, 4, 3, 2, 2, 2, 1, 2, 2, 2, 2, 2, 2, 5, 5, 5, 5, 5, 5, 3, 2, 2, 2, 2, 2, 4, 3, 2, 2, 1, 1, 3, 3, 3, 3, 3, 3, 4, 4, 4, 4, 3, 3, 4, 3, 3, 3, 3, 3, 3, 2, 2, 2, 2, 2, 4, 3, 3, 2, 2, 2, 4, 3, 3, 3, 3, 3, 4, 4, 4, 4, 3, 3, 4, 3, 3, 3, 3, 3, 4, 4, 4, 4, 4, 4, 4, 4, 4, 3, 3, 2, 3, 2, 2, 2, 1, 1, 1, 1, 1, 1, 1, 1, 4, 3, 3, 3, 2, 2, 3, 2, 2, 2, 2, 2, 4, 4, 3, 2, 1, 1, 3, 3, 3, 3, 3, 3, 4, 3, 3, 2, 2, 1, 4, 3, 2, 2, 1, 1, 4, 4, 4, 4, 4, 4, 2, 2, 2, 1, 1, 1, 1, 1, 1, 1, 1, 1, 4, 4, 4, 4, 4, 4, 4, 3, 3, 2, 2, 1, 2, 2, 2, 2, 2, 2, 4, 4, 4, 4, 4, 4, 1, 1, 1, 1, 1, 1, 5, 4, 4, 4, 4, 4, 1, 1, 1, 1, 1, 1, 4, 3, 3, 3, 3, 3, 4, 3, 3, 3, 3, 3, 2, 2, 2, 2, 2, 2, 5, 5, 5, 5, 5, 5, 4, 4, 3, 3, 3, 2, 4, 3, 3, 2, 2, 2, 5, 4, 4, 4, 4, 4, 4, 4, 3, 3, 2, 2, 5, 4, 4, 4, 4, 4, 2, 1, 1, 1, 1, 1, 4, 4, 3, 3, 1, 1, 5, 3, 3, 3, 1, 1, 5, 4, 4, 3, 3, 3, 5, 4, 4, 4, 4, 4, 2, 2, 2, 2, 2, 2, 5, 4, 4, 4, 4, 4, 4, 4, 4, 4, 4, 4, 2, 2, 2, 2, 2, 2, 3, 3, 3, 2, 1, 1, 4, 4, 3, 2, 2, 1, 3, 2, 2, 2, 1, 1, 3, 2, 2, 1, 1, 1, 3, 3, 3, 2, 2, 2, 3, 3, 3, 3, 3, 3, 2, 2, 2, 2, 1, 1, 4, 4, 4, 3, 3, 3, 4, 4, 4, 4, 3, 3, 5, 4, 4, 3, 3, 3, 3, 3, 3, 2, 2, 2, 5, 4, 4, 4, 4, 4, 3, 3, 3, 2, 2, 2, 4, 3, 3, 2, 1, 1, 2, 2, 2, 2, 2, 2, 3, 3, 3, 3, 3, 3, 2, 2, 2, 2, 2, 2, 4, 4, 4, 4, 4, 4, 4, 4, 3, 2, 2, 1, 3, 2, 2, 2, 2, 2, 3, 3, 3, 3, 3, 3, 4, 4, 4, 4, 4, 4, 1, 1, 1, 1, 1, 1, 5, 4, 4, 3, 2, 2, 4, 4, 3, 3, 2, 1, 5, 4, 3, 2, 2, 1
 |2, 1, 1, 1, 1, 1, 4, 4, 3, 3, 3, 2, 5, 4, 4, 4, 3, 3, 3, 3, 3, 2, 1, 1, 4, 4, 4, 4, 3, 3, 2, 2, 2, 2, 2, 2, 4, 3, 3, 3, 2, 2, 3, 2, 2, 2, 1, 1, 3, 2, 2, 2, 1, 1, 5, 5, 5, 5, 5, 5, 2, 2, 2, 2, 1, 1, 5, 5, 5, 5, 5, 5, 5, 5, 5, 5, 5, 5, 3, 3, 3, 3, 3, 3, 4, 4, 4, 4, 4, 4, 5, 4, 4, 4, 4, 4, 4, 3, 3, 3, 3, 3, 5, 4, 3, 3, 2, 2, 5, 5, 5, 5, 5, 5, 2, 2, 2, 1, 1, 1, 2, 2, 2, 2, 2, 2, 4, 3, 2, 2, 1, 1, 4, 4, 4, 4, 4, 4, 4, 3, 3, 3, 3, 3, 2, 1, 1, 1, 1, 1, 4, 4, 4, 4, 4, 4, 2, 2, 2, 2, 1, 1, 4, 4, 4, 4, 4, 4, 5, 4, 3, 3, 1, 1, 5, 4, 4, 4, 4, 4, 4, 4, 4, 4, 4, 4, 2, 2, 2, 2, 1, 1, 2, 2, 2, 2, 2, 2, 4, 4, 4, 4, 4, 4, 1, 1, 1, 1, 1, 1, 4, 4, 4, 4, 4, 4, 1, 1, 1, 1, 1, 1, 3, 3, 3, 3, 2, 2, 4, 4, 3, 3, 3, 2, 5, 4, 4, 4, 3, 3, 4, 4, 4, 4, 4, 4, 4, 4, 3, 3, 2, 1, 5, 5, 5, 5, 5, 5, 2, 2, 2, 2, 1, 1, 1, 1, 1, 1, 1, 1, 4, 4, 4, 4, 4, 4, 3, 3, 3, 3, 3, 3, 3, 3, 3, 2, 2, 1, 5, 5, 5, 5, 5, 5, 2, 2, 2, 1, 1, 1, 3, 3, 2, 2, 1, 1, 3, 2, 2, 2, 1, 1, 2, 1, 1, 1, 1, 1, 5, 4, 4, 4, 3, 3, 2, 2, 2, 2, 2, 2, 3, 3, 3, 3, 3, 3, 3, 2, 2, 1, 1, 1, 4, 4, 4, 4, 3, 3, 4, 4, 4, 4, 4, 4, 2, 2, 2, 1, 1, 1, 3, 2, 2, 2, 2, 2, 3, 2, 2, 2, 2, 2, 4, 3, 3, 3, 3, 3, 3, 3, 3, 3, 3, 3, 3, 3, 3, 3, 3, 3, 3, 2, 2, 1, 1, 1, 4, 4, 3, 3, 2, 2, 2, 2, 2, 2, 2, 2, 3, 3, 3, 2, 2, 2, 2, 2, 2, 2, 2, 2, 5, 4, 4, 4, 4, 4, 4, 3, 3, 3, 2, 1, 4, 3, 3, 3, 2, 1, 4, 4, 4, 4, 3, 3, 5, 4, 4, 4, 3, 3, 5, 5, 5, 5, 5, 5, 5, 5, 5, 5, 5, 5, 2, 2, 2, 1, 1, 1, 2, 2, 2, 1, 1, 1, 3, 3, 3, 3, 3, 3, 5, 5, 5, 5, 5, 5, 4, 4, 4, 4, 4, 4, 1, 1, 1, 1, 1, 1, 3, 2, 2, 2, 2, 2, 3, 3, 3, 2, 1, 1, 4, 4, 4, 3, 3, 3, 5, 4, 3, 3, 2, 1, 5, 5, 5, 5, 5, 5, 4, 4, 3, 3, 2, 2, 4, 4, 4, 4, 4, 4, 4, 4, 4, 4, 3, 3, 3, 3, 3, 2, 1, 1, 3, 2, 2, 1, 1, 1, 1, 1, 1, 1, 1, 1, 2, 1, 1, 1, 1, 1, 2, 1, 1, 1, 1, 1, 5, 3, 3, 2, 2, 1, 5, 4, 4, 4, 3, 3, 5, 4, 4, 3, 3, 2, 4, 4, 4, 4, 4, 4
 |21, 16, 16, 12, 12, 9, 24, 22, 20, 18, 13, 11, 27, 23, 22, 19, 19, 15, 17, 16, 16, 15, 12, 11, 8, 8, 8, 8, 8, 8, 24, 19, 16, 13, 9, 9, 29, 26, 23, 23, 21, 19, 20, 18, 17, 17, 13, 12, 25, 20, 18, 17, 15, 13, 8, 8, 8, 8, 8, 8, 24, 24, 24, 24, 24, 24, 22, 20, 19, 14, 8, 5, 7, 5, 5, 3, 3, 2, 19, 18, 13, 11, 10, 7, 28, 25, 23, 22, 19, 16, 28, 24, 17, 16, 11, 7, 17, 12, 10, 8, 5, 5, 21, 19, 18, 16, 15, 13, 18, 17, 17, 16, 16, 15, 26, 24, 22, 20, 16, 12, 24, 19, 16, 11, 6, 6, 27, 25, 22, 19, 17, 15, 21, 18, 17, 15, 10, 10, 15, 11, 10, 9, 4, 1, 9, 9, 8, 7, 6, 5, 30, 26, 21, 17, 13, 12, 13, 12, 11, 10, 10, 9, 6, 6, 6, 6, 6, 6, 23, 23, 20, 19, 17, 15, 6, 6, 4, 4, 2, 2, 19, 16, 14, 12, 10, 9, 10, 8, 6, 6, 5, 3, 19, 17, 13, 13, 11, 7, 12, 10, 8, 6, 4, 3, 22, 21, 19, 19, 18, 16, 24, 22, 20, 15, 7, 3, 24, 24, 22, 21, 19, 19, 21, 17, 17, 14, 12, 9, 27, 27, 26, 25, 23, 23, 25, 24, 24, 22, 20, 20, 13, 9, 9, 5, 4, 3, 24, 20, 17, 16, 11, 8, 11, 10, 10, 9, 8, 6, 26, 25, 25, 24, 24, 23, 30, 25, 23, 19, 17, 14, 23, 22, 18, 17, 14, 12, 16, 15, 15, 13, 12, 12, 27, 22, 18, 18, 13, 8, 13, 10, 9, 6, 6, 3, 20, 20, 18, 16, 14, 11, 26, 23, 22, 18, 17, 13, 28, 26, 22, 20, 16, 13, 27, 25, 24, 23, 21, 19, 29, 27, 25, 24, 22, 19, 28, 22, 21, 19, 16, 13, 30, 23, 19, 18, 11, 10, 18, 17, 16, 15, 15, 14, 25, 22, 21, 20, 19, 18, 15, 14, 14, 13, 12, 12, 21, 19, 19, 17, 12, 11, 24, 22, 18, 14, 7, 5, 21, 17, 14, 8, 6, 4, 23, 22, 18, 16, 13, 13, 26, 24, 23, 20, 16, 16, 18, 15, 14, 12, 10, 8, 23, 22, 22, 21, 21, 21, 7, 6, 6, 4, 4, 2, 4, 4, 4, 3, 3, 2, 12, 12, 12, 12, 12, 12, 9, 8, 8, 7, 6, 6, 30, 29, 29, 28, 28, 27, 22, 19, 18, 17, 14, 13, 16, 14, 14, 13, 12, 10, 25, 23, 19, 18, 14, 12, 19, 15, 14, 11, 10, 9, 16, 14, 12, 12, 11, 9, 26, 21, 21, 16, 14, 13, 14, 13, 13, 12, 11, 11, 11, 10, 9, 9, 8, 6, 24, 19, 16, 11, 9, 6, 25, 21, 17, 16, 12, 9, 19, 18, 16, 13, 12, 11, 27, 23, 21, 20, 16, 12, 30, 29, 28, 26, 26, 24, 19, 19, 18, 16, 15, 14, 22, 20, 19, 18, 16, 15, 23, 18, 16, 13, 10, 8, 13, 11, 11, 10, 8, 7, 16, 16, 16, 15, 14, 14, 9, 8, 8, 8, 8, 8, 7, 6, 4, 4, 2, 2, 20, 20, 20, 19, 19, 19, 16, 16, 15, 15, 13, 13, 1, 1, 1, 1, 1, 1, 11, 9, 9, 8, 6, 5, 30, 27, 26, 25, 24, 24, 16, 15, 10, 6, 3, 2, 8, 7, 6, 6, 5, 5, 26, 20, 17, 16, 13, 9, 21, 21, 15, 13, 9, 9
 |24, 21, 18, 12, 7, 7, 26, 23, 22, 19, 16, 11, 17, 17, 17, 17, 17, 17, 7, 7, 6, 7, 7, 7, 27, 27, 26, 27, 27, 26, 30, 29, 28, 27, 25, 24, 26, 24, 23, 20, 16, 14, 12, 12, 12, 11, 11, 10, 12, 10, 6, 5, 3, 1, 27, 26, 23, 22, 19, 17, 12, 11, 11, 10, 9, 8, 27, 25, 25, 21, 19, 18, 6, 4, 3, 2, 2, 1, 23, 22, 21, 21, 20, 20, 25, 24, 24, 24, 24, 24, 21, 20, 19, 18, 16, 16, 30, 29, 27, 27, 25, 24, 25, 22, 20, 20, 16, 15, 2, 2, 1, 2, 1, 1, 12, 12, 9, 9, 7, 5, 20, 18, 18, 17, 15, 15, 22, 19, 14, 11, 11, 7, 16, 16, 15, 15, 14, 14, 11, 9, 7, 5, 3, 3, 27, 22, 22, 16, 14, 11, 14, 12, 12, 11, 11, 10, 12, 12, 10, 8, 7, 4, 18, 17, 16, 15, 13, 12, 12, 10, 10, 10, 9, 8, 13, 12, 11, 10, 9, 8, 10, 10, 8, 8, 7, 6, 20, 19, 13, 12, 8, 4, 8, 8, 8, 8, 8, 8, 27, 24, 21, 16, 13, 10, 12, 12, 12, 11, 11, 11, 22, 19, 16, 11, 9, 4, 30, 27, 24, 20, 17, 14, 15, 12, 11, 8, 7, 5, 28, 27, 27, 25, 24, 24, 20, 16, 15, 13, 8, 6, 15, 14, 13, 13, 13, 12, 13, 10, 9, 5, 4, 3, 17, 16, 16, 16, 16, 16, 25, 25, 24, 24, 23, 23, 18, 16, 14, 12, 8, 8, 12, 11, 11, 10, 9, 9, 12, 12, 11, 11, 10, 10, 16, 13, 9, 6, 4, 1, 17, 15, 14, 13, 10, 6, 29, 28, 28, 27, 26, 26, 10, 10, 8, 4, 3, 2, 18, 18, 13, 11, 8, 6, 17, 16, 15, 13, 11, 10, 18, 14, 13, 9, 7, 6, 13, 12, 11, 11, 10, 10, 19, 19, 15, 11, 8, 8, 17, 16, 15, 15, 14, 14, 25, 24, 24, 24, 24, 24, 17, 15, 14, 12, 12, 10, 18, 17, 16, 14, 14, 12, 28, 25, 25, 23, 21, 18, 23, 22, 22, 21, 21, 21, 26, 24, 22, 18, 14, 12, 28, 23, 18, 18, 14, 10, 13, 12, 12, 11, 10, 8, 27, 25, 25, 24, 23, 23, 30, 26, 26, 24, 22, 19, 1, 2, 1, 1, 1, 1, 17, 17, 16, 16, 14, 13, 5, 4, 3, 3, 1, 1, 24, 20, 15, 14, 8, 5, 13, 13, 13, 13, 13, 13, 22, 20, 17, 17, 14, 13, 5, 4, 4, 4, 4, 4, 22, 20, 15, 15, 12, 9, 18, 14, 10, 10, 7, 4, 30, 28, 28, 28, 26, 26, 28, 23, 16, 10, 8, 4, 22, 22, 21, 20, 18, 17, 15, 13, 10, 7, 3, 3, 27, 25, 24, 23, 20, 18, 25, 24, 24, 22, 22, 21, 25, 18, 14, 12, 10, 5, 4, 3, 3, 3, 3, 3, 24, 22, 20, 16, 16, 13, 15, 15, 14, 14, 13, 13, 11, 10, 8, 8, 6, 4, 23, 17, 15, 10, 7, 5, 3, 3, 3, 2, 2, 1, 13, 12, 10, 8, 4, 1, 22, 21, 17, 13, 6, 3, 16, 15, 14, 11, 10, 6, 30, 26, 25, 22, 21, 17, 22, 21, 20, 20, 19, 18, 29, 27, 26, 27, 26, 25, 12, 12, 11, 10, 10, 9, 26, 24, 21, 19, 19, 16, 25, 24, 24, 24, 23, 22, 23, 23, 22, 22, 20, 20, 26, 24, 19, 16, 14, 12|];